137
10
20
29
31
79
122
140
166
187
201
220
240
258
260
262
266
286
320
342
349
396
409
425
432
447
499
509
529
548
549
551
552
553
591
605
615
641
661
669
671
706
717
719
730
732
734
739
740
748
781
820
821
838
840
858
863
895
907
910
911
917
920
960
976
985
995
998
1003
1019
1039
1063
1068
1084
1086
1123
1143
1144
1167
1194
1219
1226
1247
1302
1313
1317
1346
1348
1352
1355
1364
1373
1374
1379
1386
1392
1396
1436
1437
1441
1449
1450
1458
1485
1497
1542
1544
1555
1562
1563
1565
1581
1590
1601
1612
1613
1633
1637
1643
1648
1649
1650
1683
1691
1692
1697
1729
1737
1752
1768
1786
1798
1800
1808
1814
1819
1832
1847
12
9
20
33
45
59
62
73
85
99
109
122
136
